variable T equal 300

units real
atom_style molecular
boundary f f f
pair_style lj/cut 14

bond_style harmonic
angle_style harmonic
dihedral_style opls
improper_style harmonic

special_bonds lj 0.0 0.0 0.5

read_data cnt_molecular.data

include parm.lammps

# recentering CNT
group carbon_atoms type 1
variable carbon_xcm equal -1*xcm(carbon_atoms, x)
variable carbon_ycm equal -1*xcm(carbon_atoms, y)
variable carbon_zcm equal -1*xcm(carbon_atoms, z)
displace_atoms carbon_atoms move ${carbon_xcm} ${carbon_ycm} ${carbon_zcm}

# changing box boundaries - making the inital state symmetrical
change_box all x final -40 40 y final -40 40 z final -40 40

# isolating atoms from two edges as displacement will be imposed on the edges of the CNT
variable zmax equal bound(carbon_atoms, zmax)-0.5
variable zmin equal bound(carbon_atoms, zmin)+0.5
region rtop block INF INF INF INF ${zmax} INF
region rbot block INF INF INF INF INF ${zmin}
region rmid block INF INF INF INF ${zmin} ${zmax}

# defining 3 groups of atoms corresponding to the 3 regions respectively
group carbon_top region rtop
group carbon_bot region rbot
group carbon_mid region rmid

# introducing a less ideal state with some defects where we randomly delete a samll fraction
# of carbon atoms. To avoid deleting atoms closed to edge we create a new refion that 
# starts a certaing distance from the edge
variable zmax_del equal ${zmax}-2
variable zmin_del equal ${zmin}+2
region rdel block INF INF INF INF ${zmin_del} ${zmax_del}
group rdel region rdel
delete_atoms random fraction 0.02 no rdel NULL 482793 bond yes # what happened here!

